c 0.011717796325683594 (encode time in sec)
p cnf 90 1048
1 2 3 4 0
1 2 -3 5 0
1 -2 3 4 0
1 -2 -3 5 0
-1 2 3 5 0
-1 2 -3 4 0
-1 -2 3 5 0
-1 -2 -3 4 0
6 7 8 9 0
6 7 -8 10 0
6 -7 8 9 0
6 -7 -8 10 0
-6 7 8 10 0
-6 7 -8 9 0
-6 -7 8 10 0
-6 -7 -8 9 0
11 12 13 14 0
11 12 -13 15 0
11 -12 13 14 0
11 -12 -13 15 0
-11 12 13 15 0
-11 12 -13 14 0
-11 -12 13 15 0
-11 -12 -13 14 0
16 17 18 1 2 3 6 7 8 19 0
16 17 18 1 2 3 6 7 -8 19 0
16 17 18 1 2 3 6 -7 8 22 0
16 17 18 1 2 3 6 -7 -8 21 0
16 17 18 1 2 3 -6 7 8 41 0
16 17 18 1 2 3 -6 7 -8 20 0
16 17 18 1 2 3 -6 -7 8 35 0
16 17 18 1 2 3 -6 -7 -8 20 0
16 17 18 1 2 -3 6 7 8 23 0
16 17 18 1 2 -3 6 7 -8 24 0
16 17 18 1 2 -3 6 -7 8 25 0
16 17 18 1 2 -3 6 -7 -8 20 0
16 17 18 1 2 -3 -6 7 8 20 0
16 17 18 1 2 -3 -6 7 -8 42 0
16 17 18 1 2 -3 -6 -7 8 35 0
16 17 18 1 2 -3 -6 -7 -8 43 0
16 17 18 1 -2 3 6 7 8 26 0
16 17 18 1 -2 3 6 7 -8 42 0
16 17 18 1 -2 3 6 -7 8 27 0
16 17 18 1 -2 3 6 -7 -8 20 0
16 17 18 1 -2 3 -6 7 8 20 0
16 17 18 1 -2 3 -6 7 -8 42 0
16 17 18 1 -2 3 -6 -7 8 42 0
16 17 18 1 -2 3 -6 -7 -8 20 0
16 17 18 1 -2 -3 6 7 8 49 0
16 17 18 1 -2 -3 6 7 -8 43 0
16 17 18 1 -2 -3 6 -7 8 44 0
16 17 18 1 -2 -3 6 -7 -8 20 0
16 17 18 1 -2 -3 -6 7 8 20 0
16 17 18 1 -2 -3 -6 7 -8 41 0
16 17 18 1 -2 -3 -6 -7 8 20 0
16 17 18 1 -2 -3 -6 -7 -8 20 0
16 17 18 -1 2 3 6 7 8 25 0
16 17 18 -1 2 3 6 7 -8 28 0
16 17 18 -1 2 3 6 -7 8 43 0
16 17 18 -1 2 3 6 -7 -8 36 0
16 17 18 -1 2 3 -6 7 8 20 0
16 17 18 -1 2 3 -6 7 -8 41 0
16 17 18 -1 2 3 -6 -7 8 43 0
16 17 18 -1 2 3 -6 -7 -8 42 0
16 17 18 -1 2 -3 6 7 8 21 0
16 17 18 -1 2 -3 6 7 -8 43 0
16 17 18 -1 2 -3 6 -7 8 42 0
16 17 18 -1 2 -3 6 -7 -8 43 0
16 17 18 -1 2 -3 -6 7 8 42 0
16 17 18 -1 2 -3 -6 7 -8 20 0
16 17 18 -1 2 -3 -6 -7 8 20 0
16 17 18 -1 2 -3 -6 -7 -8 43 0
16 17 18 -1 -2 3 6 7 8 39 0
16 17 18 -1 -2 3 6 7 -8 35 0
16 17 18 -1 -2 3 6 -7 8 42 0
16 17 18 -1 -2 3 6 -7 -8 34 0
16 17 18 -1 -2 3 -6 7 8 20 0
16 17 18 -1 -2 3 -6 7 -8 28 0
16 17 18 -1 -2 3 -6 -7 8 36 0
16 17 18 -1 -2 3 -6 -7 -8 35 0
16 17 18 -1 -2 -3 6 7 8 37 0
16 17 18 -1 -2 -3 6 7 -8 35 0
16 17 18 -1 -2 -3 6 -7 8 42 0
16 17 18 -1 -2 -3 6 -7 -8 35 0
16 17 18 -1 -2 -3 -6 7 8 35 0
16 17 18 -1 -2 -3 -6 7 -8 35 0
16 17 18 -1 -2 -3 -6 -7 8 43 0
16 17 18 -1 -2 -3 -6 -7 -8 36 0
16 17 -18 1 2 3 6 7 8 35 0
16 17 -18 1 2 3 6 7 -8 35 0
16 17 -18 1 2 3 6 -7 8 21 0
16 17 -18 1 2 3 6 -7 -8 39 0
16 17 -18 1 2 3 -6 7 8 48 0
16 17 -18 1 2 3 -6 7 -8 20 0
16 17 -18 1 2 3 -6 -7 8 45 0
16 17 -18 1 2 3 -6 -7 -8 20 0
16 17 -18 1 2 -3 6 7 8 42 0
16 17 -18 1 2 -3 6 7 -8 49 0
16 17 -18 1 2 -3 6 -7 8 50 0
16 17 -18 1 2 -3 6 -7 -8 49 0
16 17 -18 1 2 -3 -6 7 8 38 0
16 17 -18 1 2 -3 -6 7 -8 42 0
16 17 -18 1 2 -3 -6 -7 8 35 0
16 17 -18 1 2 -3 -6 -7 -8 43 0
16 17 -18 1 -2 3 6 7 8 38 0
16 17 -18 1 -2 3 6 7 -8 51 0
16 17 -18 1 -2 3 6 -7 8 27 0
16 17 -18 1 -2 3 6 -7 -8 20 0
16 17 -18 1 -2 3 -6 7 8 38 0
16 17 -18 1 -2 3 -6 7 -8 42 0
16 17 -18 1 -2 3 -6 -7 8 42 0
16 17 -18 1 -2 3 -6 -7 -8 20 0
16 17 -18 1 -2 -3 6 7 8 24 0
16 17 -18 1 -2 -3 6 7 -8 33 0
16 17 -18 1 -2 -3 6 -7 8 44 0
16 17 -18 1 -2 -3 6 -7 -8 20 0
16 17 -18 1 -2 -3 -6 7 8 20 0
16 17 -18 1 -2 -3 -6 7 -8 41 0
16 17 -18 1 -2 -3 -6 -7 8 20 0
16 17 -18 1 -2 -3 -6 -7 -8 20 0
16 17 -18 -1 2 3 6 7 8 50 0
16 17 -18 -1 2 3 6 7 -8 29 0
16 17 -18 -1 2 3 6 -7 8 43 0
16 17 -18 -1 2 3 6 -7 -8 36 0
16 17 -18 -1 2 3 -6 7 8 20 0
16 17 -18 -1 2 3 -6 7 -8 41 0
16 17 -18 -1 2 3 -6 -7 8 43 0
16 17 -18 -1 2 3 -6 -7 -8 42 0
16 17 -18 -1 2 -3 6 7 8 39 0
16 17 -18 -1 2 -3 6 7 -8 25 0
16 17 -18 -1 2 -3 6 -7 8 42 0
16 17 -18 -1 2 -3 6 -7 -8 43 0
16 17 -18 -1 2 -3 -6 7 8 42 0
16 17 -18 -1 2 -3 -6 7 -8 20 0
16 17 -18 -1 2 -3 -6 -7 8 20 0
16 17 -18 -1 2 -3 -6 -7 -8 43 0
16 17 -18 -1 -2 3 6 7 8 41 0
16 17 -18 -1 -2 3 6 7 -8 35 0
16 17 -18 -1 -2 3 6 -7 8 42 0
16 17 -18 -1 -2 3 6 -7 -8 34 0
16 17 -18 -1 -2 3 -6 7 8 20 0
16 17 -18 -1 -2 3 -6 7 -8 28 0
16 17 -18 -1 -2 3 -6 -7 8 36 0
16 17 -18 -1 -2 3 -6 -7 -8 35 0
16 17 -18 -1 -2 -3 6 7 8 42 0
16 17 -18 -1 -2 -3 6 7 -8 35 0
16 17 -18 -1 -2 -3 6 -7 8 42 0
16 17 -18 -1 -2 -3 6 -7 -8 35 0
16 17 -18 -1 -2 -3 -6 7 8 35 0
16 17 -18 -1 -2 -3 -6 7 -8 35 0
16 17 -18 -1 -2 -3 -6 -7 8 43 0
16 17 -18 -1 -2 -3 -6 -7 -8 36 0
16 -17 18 1 2 3 6 7 8 35 0
16 -17 18 1 2 3 6 7 -8 35 0
16 -17 18 1 2 3 6 -7 8 36 0
16 -17 18 1 2 3 6 -7 -8 39 0
16 -17 18 1 2 3 -6 7 8 41 0
16 -17 18 1 2 3 -6 7 -8 24 0
16 -17 18 1 2 3 -6 -7 8 35 0
16 -17 18 1 2 3 -6 -7 -8 20 0
16 -17 18 1 2 -3 6 7 8 42 0
16 -17 18 1 2 -3 6 7 -8 20 0
16 -17 18 1 2 -3 6 -7 8 43 0
16 -17 18 1 2 -3 6 -7 -8 24 0
16 -17 18 1 2 -3 -6 7 8 24 0
16 -17 18 1 2 -3 -6 7 -8 42 0
16 -17 18 1 2 -3 -6 -7 8 35 0
16 -17 18 1 2 -3 -6 -7 -8 43 0
16 -17 18 1 -2 3 6 7 8 20 0
16 -17 18 1 -2 3 6 7 -8 46 0
16 -17 18 1 -2 3 6 -7 8 27 0
16 -17 18 1 -2 3 6 -7 -8 24 0
16 -17 18 1 -2 3 -6 7 8 38 0
16 -17 18 1 -2 3 -6 7 -8 42 0
16 -17 18 1 -2 3 -6 -7 8 42 0
16 -17 18 1 -2 3 -6 -7 -8 20 0
16 -17 18 1 -2 -3 6 7 8 20 0
16 -17 18 1 -2 -3 6 7 -8 43 0
16 -17 18 1 -2 -3 6 -7 8 22 0
16 -17 18 1 -2 -3 6 -7 -8 26 0
16 -17 18 1 -2 -3 -6 7 8 20 0
16 -17 18 1 -2 -3 -6 7 -8 41 0
16 -17 18 1 -2 -3 -6 -7 8 20 0
16 -17 18 1 -2 -3 -6 -7 -8 20 0
16 -17 18 -1 2 3 6 7 8 43 0
16 -17 18 -1 2 3 6 7 -8 30 0
16 -17 18 -1 2 3 6 -7 8 25 0
16 -17 18 -1 2 3 6 -7 -8 39 0
16 -17 18 -1 2 3 -6 7 8 20 0
16 -17 18 -1 2 3 -6 7 -8 41 0
16 -17 18 -1 2 3 -6 -7 8 43 0
16 -17 18 -1 2 3 -6 -7 -8 42 0
16 -17 18 -1 2 -3 6 7 8 44 0
16 -17 18 -1 2 -3 6 7 -8 50 0
16 -17 18 -1 2 -3 6 -7 8 37 0
16 -17 18 -1 2 -3 6 -7 -8 43 0
16 -17 18 -1 2 -3 -6 7 8 42 0
16 -17 18 -1 2 -3 -6 7 -8 20 0
16 -17 18 -1 2 -3 -6 -7 8 20 0
16 -17 18 -1 2 -3 -6 -7 -8 43 0
16 -17 18 -1 -2 3 6 7 8 41 0
16 -17 18 -1 -2 3 6 7 -8 45 0
16 -17 18 -1 -2 3 6 -7 8 37 0
16 -17 18 -1 -2 3 6 -7 -8 34 0
16 -17 18 -1 -2 3 -6 7 8 20 0
16 -17 18 -1 -2 3 -6 7 -8 28 0
16 -17 18 -1 -2 3 -6 -7 8 36 0
16 -17 18 -1 -2 3 -6 -7 -8 35 0
16 -17 18 -1 -2 -3 6 7 8 47 0
16 -17 18 -1 -2 -3 6 7 -8 35 0
16 -17 18 -1 -2 -3 6 -7 8 42 0
16 -17 18 -1 -2 -3 6 -7 -8 35 0
16 -17 18 -1 -2 -3 -6 7 8 35 0
16 -17 18 -1 -2 -3 -6 7 -8 35 0
16 -17 18 -1 -2 -3 -6 -7 8 43 0
16 -17 18 -1 -2 -3 -6 -7 -8 36 0
16 -17 -18 1 2 3 6 7 8 35 0
16 -17 -18 1 2 3 6 7 -8 35 0
16 -17 -18 1 2 3 6 -7 8 36 0
16 -17 -18 1 2 3 6 -7 -8 36 0
16 -17 -18 1 2 3 -6 7 8 41 0
16 -17 -18 1 2 3 -6 7 -8 24 0
16 -17 -18 1 2 3 -6 -7 8 29 0
16 -17 -18 1 2 3 -6 -7 -8 20 0
16 -17 -18 1 2 -3 6 7 8 42 0
16 -17 -18 1 2 -3 6 7 -8 20 0
16 -17 -18 1 2 -3 6 -7 8 43 0
16 -17 -18 1 2 -3 6 -7 -8 20 0
16 -17 -18 1 2 -3 -6 7 8 20 0
16 -17 -18 1 2 -3 -6 7 -8 47 0
16 -17 -18 1 2 -3 -6 -7 8 45 0
16 -17 -18 1 2 -3 -6 -7 -8 43 0
16 -17 -18 1 -2 3 6 7 8 20 0
16 -17 -18 1 -2 3 6 7 -8 42 0
16 -17 -18 1 -2 3 6 -7 8 27 0
16 -17 -18 1 -2 3 6 -7 -8 38 0
16 -17 -18 1 -2 3 -6 7 8 49 0
16 -17 -18 1 -2 3 -6 7 -8 46 0
16 -17 -18 1 -2 3 -6 -7 8 42 0
16 -17 -18 1 -2 3 -6 -7 -8 20 0
16 -17 -18 1 -2 -3 6 7 8 20 0
16 -17 -18 1 -2 -3 6 7 -8 43 0
16 -17 -18 1 -2 -3 6 -7 8 44 0
16 -17 -18 1 -2 -3 6 -7 -8 38 0
16 -17 -18 1 -2 -3 -6 7 8 24 0
16 -17 -18 1 -2 -3 -6 7 -8 41 0
16 -17 -18 1 -2 -3 -6 -7 8 20 0
16 -17 -18 1 -2 -3 -6 -7 -8 20 0
16 -17 -18 -1 2 3 6 7 8 43 0
16 -17 -18 -1 2 3 6 7 -8 28 0
16 -17 -18 -1 2 3 6 -7 8 50 0
16 -17 -18 -1 2 3 6 -7 -8 22 0
16 -17 -18 -1 2 3 -6 7 8 20 0
16 -17 -18 -1 2 3 -6 7 -8 41 0
16 -17 -18 -1 2 3 -6 -7 8 43 0
16 -17 -18 -1 2 3 -6 -7 -8 42 0
16 -17 -18 -1 2 -3 6 7 8 36 0
16 -17 -18 -1 2 -3 6 7 -8 43 0
16 -17 -18 -1 2 -3 6 -7 8 51 0
16 -17 -18 -1 2 -3 6 -7 -8 43 0
16 -17 -18 -1 2 -3 -6 7 8 37 0
16 -17 -18 -1 2 -3 -6 7 -8 20 0
16 -17 -18 -1 2 -3 -6 -7 8 20 0
16 -17 -18 -1 2 -3 -6 -7 -8 43 0
16 -17 -18 -1 -2 3 6 7 8 39 0
16 -17 -18 -1 -2 3 6 7 -8 29 0
16 -17 -18 -1 -2 3 6 -7 8 46 0
16 -17 -18 -1 -2 3 6 -7 -8 34 0
16 -17 -18 -1 -2 3 -6 7 8 20 0
16 -17 -18 -1 -2 3 -6 7 -8 28 0
16 -17 -18 -1 -2 3 -6 -7 8 36 0
16 -17 -18 -1 -2 3 -6 -7 -8 35 0
16 -17 -18 -1 -2 -3 6 7 8 37 0
16 -17 -18 -1 -2 -3 6 7 -8 29 0
16 -17 -18 -1 -2 -3 6 -7 8 42 0
16 -17 -18 -1 -2 -3 6 -7 -8 35 0
16 -17 -18 -1 -2 -3 -6 7 8 35 0
16 -17 -18 -1 -2 -3 -6 7 -8 35 0
16 -17 -18 -1 -2 -3 -6 -7 8 43 0
16 -17 -18 -1 -2 -3 -6 -7 -8 36 0
-16 17 18 1 2 3 6 7 8 35 0
-16 17 18 1 2 3 6 7 -8 35 0
-16 17 18 1 2 3 6 -7 8 36 0
-16 17 18 1 2 3 6 -7 -8 36 0
-16 17 18 1 2 3 -6 7 8 41 0
-16 17 18 1 2 3 -6 7 -8 38 0
-16 17 18 1 2 3 -6 -7 8 45 0
-16 17 18 1 2 3 -6 -7 -8 24 0
-16 17 18 1 2 -3 6 7 8 42 0
-16 17 18 1 2 -3 6 7 -8 20 0
-16 17 18 1 2 -3 6 -7 8 43 0
-16 17 18 1 2 -3 6 -7 -8 20 0
-16 17 18 1 2 -3 -6 7 8 38 0
-16 17 18 1 2 -3 -6 7 -8 47 0
-16 17 18 1 2 -3 -6 -7 8 22 0
-16 17 18 1 2 -3 -6 -7 -8 43 0
-16 17 18 1 -2 3 6 7 8 20 0
-16 17 18 1 -2 3 6 7 -8 42 0
-16 17 18 1 -2 3 6 -7 8 27 0
-16 17 18 1 -2 3 6 -7 -8 24 0
-16 17 18 1 -2 3 -6 7 8 20 0
-16 17 18 1 -2 3 -6 7 -8 37 0
-16 17 18 1 -2 3 -6 -7 8 46 0
-16 17 18 1 -2 3 -6 -7 -8 38 0
-16 17 18 1 -2 -3 6 7 8 20 0
-16 17 18 1 -2 -3 6 7 -8 43 0
-16 17 18 1 -2 -3 6 -7 8 36 0
-16 17 18 1 -2 -3 6 -7 -8 20 0
-16 17 18 1 -2 -3 -6 7 8 24 0
-16 17 18 1 -2 -3 -6 7 -8 41 0
-16 17 18 1 -2 -3 -6 -7 8 38 0
-16 17 18 1 -2 -3 -6 -7 -8 20 0
-16 17 18 -1 2 3 6 7 8 43 0
-16 17 18 -1 2 3 6 7 -8 28 0
-16 17 18 -1 2 3 6 -7 8 43 0
-16 17 18 -1 2 3 6 -7 -8 44 0
-16 17 18 -1 2 3 -6 7 8 49 0
-16 17 18 -1 2 3 -6 7 -8 39 0
-16 17 18 -1 2 3 -6 -7 8 43 0
-16 17 18 -1 2 3 -6 -7 -8 42 0
-16 17 18 -1 2 -3 6 7 8 44 0
-16 17 18 -1 2 -3 6 7 -8 43 0
-16 17 18 -1 2 -3 6 -7 8 37 0
-16 17 18 -1 2 -3 6 -7 -8 33 0
-16 17 18 -1 2 -3 -6 7 8 42 0
-16 17 18 -1 2 -3 -6 7 -8 20 0
-16 17 18 -1 2 -3 -6 -7 8 38 0
-16 17 18 -1 2 -3 -6 -7 -8 43 0
-16 17 18 -1 -2 3 6 7 8 41 0
-16 17 18 -1 -2 3 6 7 -8 45 0
-16 17 18 -1 -2 3 6 -7 8 47 0
-16 17 18 -1 -2 3 6 -7 -8 34 0
-16 17 18 -1 -2 3 -6 7 8 20 0
-16 17 18 -1 -2 3 -6 7 -8 28 0
-16 17 18 -1 -2 3 -6 -7 8 36 0
-16 17 18 -1 -2 3 -6 -7 -8 35 0
-16 17 18 -1 -2 -3 6 7 8 42 0
-16 17 18 -1 -2 -3 6 7 -8 45 0
-16 17 18 -1 -2 -3 6 -7 8 37 0
-16 17 18 -1 -2 -3 6 -7 -8 35 0
-16 17 18 -1 -2 -3 -6 7 8 35 0
-16 17 18 -1 -2 -3 -6 7 -8 35 0
-16 17 18 -1 -2 -3 -6 -7 8 43 0
-16 17 18 -1 -2 -3 -6 -7 -8 36 0
-16 17 -18 1 2 3 6 7 8 35 0
-16 17 -18 1 2 3 6 7 -8 35 0
-16 17 -18 1 2 3 6 -7 8 36 0
-16 17 -18 1 2 3 6 -7 -8 36 0
-16 17 -18 1 2 3 -6 7 8 41 0
-16 17 -18 1 2 3 -6 7 -8 20 0
-16 17 -18 1 2 3 -6 -7 8 35 0
-16 17 -18 1 2 3 -6 -7 -8 24 0
-16 17 -18 1 2 -3 6 7 8 42 0
-16 17 -18 1 2 -3 6 7 -8 20 0
-16 17 -18 1 2 -3 6 -7 8 43 0
-16 17 -18 1 2 -3 6 -7 -8 20 0
-16 17 -18 1 2 -3 -6 7 8 38 0
-16 17 -18 1 2 -3 -6 7 -8 42 0
-16 17 -18 1 2 -3 -6 -7 8 35 0
-16 17 -18 1 2 -3 -6 -7 -8 50 0
-16 17 -18 1 -2 3 6 7 8 20 0
-16 17 -18 1 -2 3 6 7 -8 42 0
-16 17 -18 1 -2 3 6 -7 8 27 0
-16 17 -18 1 -2 3 6 -7 -8 20 0
-16 17 -18 1 -2 3 -6 7 8 20 0
-16 17 -18 1 -2 3 -6 7 -8 47 0
-16 17 -18 1 -2 3 -6 -7 8 46 0
-16 17 -18 1 -2 3 -6 -7 -8 20 0
-16 17 -18 1 -2 -3 6 7 8 20 0
-16 17 -18 1 -2 -3 6 7 -8 43 0
-16 17 -18 1 -2 -3 6 -7 8 36 0
-16 17 -18 1 -2 -3 6 -7 -8 20 0
-16 17 -18 1 -2 -3 -6 7 8 38 0
-16 17 -18 1 -2 -3 -6 7 -8 48 0
-16 17 -18 1 -2 -3 -6 -7 8 49 0
-16 17 -18 1 -2 -3 -6 -7 -8 38 0
-16 17 -18 -1 2 3 6 7 8 43 0
-16 17 -18 -1 2 3 6 7 -8 28 0
-16 17 -18 -1 2 3 6 -7 8 43 0
-16 17 -18 -1 2 3 6 -7 -8 36 0
-16 17 -18 -1 2 3 -6 7 8 24 0
-16 17 -18 -1 2 3 -6 7 -8 41 0
-16 17 -18 -1 2 3 -6 -7 8 50 0
-16 17 -18 -1 2 3 -6 -7 -8 42 0
-16 17 -18 -1 2 -3 6 7 8 36 0
-16 17 -18 -1 2 -3 6 7 -8 43 0
-16 17 -18 -1 2 -3 6 -7 8 42 0
-16 17 -18 -1 2 -3 6 -7 -8 43 0
-16 17 -18 -1 2 -3 -6 7 8 51 0
-16 17 -18 -1 2 -3 -6 7 -8 38 0
-16 17 -18 -1 2 -3 -6 -7 8 20 0
-16 17 -18 -1 2 -3 -6 -7 -8 43 0
-16 17 -18 -1 -2 3 6 7 8 41 0
-16 17 -18 -1 -2 3 6 7 -8 35 0
-16 17 -18 -1 -2 3 6 -7 8 42 0
-16 17 -18 -1 -2 3 6 -7 -8 40 0
-16 17 -18 -1 -2 3 -6 7 8 20 0
-16 17 -18 -1 -2 3 -6 7 -8 27 0
-16 17 -18 -1 -2 3 -6 -7 8 44 0
-16 17 -18 -1 -2 3 -6 -7 -8 35 0
-16 17 -18 -1 -2 -3 6 7 8 42 0
-16 17 -18 -1 -2 -3 6 7 -8 45 0
-16 17 -18 -1 -2 -3 6 -7 8 47 0
-16 17 -18 -1 -2 -3 6 -7 -8 19 0
-16 17 -18 -1 -2 -3 -6 7 8 45 0
-16 17 -18 -1 -2 -3 -6 7 -8 35 0
-16 17 -18 -1 -2 -3 -6 -7 8 43 0
-16 17 -18 -1 -2 -3 -6 -7 -8 36 0
-16 -17 18 1 2 3 6 7 8 35 0
-16 -17 18 1 2 3 6 7 -8 35 0
-16 -17 18 1 2 3 6 -7 8 36 0
-16 -17 18 1 2 3 6 -7 -8 36 0
-16 -17 18 1 2 3 -6 7 8 41 0
-16 -17 18 1 2 3 -6 7 -8 20 0
-16 -17 18 1 2 3 -6 -7 8 35 0
-16 -17 18 1 2 3 -6 -7 -8 20 0
-16 -17 18 1 2 -3 6 7 8 42 0
-16 -17 18 1 2 -3 6 7 -8 20 0
-16 -17 18 1 2 -3 6 -7 8 43 0
-16 -17 18 1 2 -3 6 -7 -8 20 0
-16 -17 18 1 2 -3 -6 7 8 20 0
-16 -17 18 1 2 -3 -6 7 -8 42 0
-16 -17 18 1 2 -3 -6 -7 8 35 0
-16 -17 18 1 2 -3 -6 -7 -8 25 0
-16 -17 18 1 -2 3 6 7 8 20 0
-16 -17 18 1 -2 3 6 7 -8 42 0
-16 -17 18 1 -2 3 6 -7 8 27 0
-16 -17 18 1 -2 3 6 -7 -8 20 0
-16 -17 18 1 -2 3 -6 7 8 20 0
-16 -17 18 1 -2 3 -6 7 -8 42 0
-16 -17 18 1 -2 3 -6 -7 8 37 0
-16 -17 18 1 -2 3 -6 -7 -8 49 0
-16 -17 18 1 -2 -3 6 7 8 20 0
-16 -17 18 1 -2 -3 6 7 -8 43 0
-16 -17 18 1 -2 -3 6 -7 8 36 0
-16 -17 18 1 -2 -3 6 -7 -8 20 0
-16 -17 18 1 -2 -3 -6 7 8 20 0
-16 -17 18 1 -2 -3 -6 7 -8 41 0
-16 -17 18 1 -2 -3 -6 -7 8 38 0
-16 -17 18 1 -2 -3 -6 -7 -8 24 0
-16 -17 18 -1 2 3 6 7 8 43 0
-16 -17 18 -1 2 3 6 7 -8 28 0
-16 -17 18 -1 2 3 6 -7 8 43 0
-16 -17 18 -1 2 3 6 -7 -8 36 0
-16 -17 18 -1 2 3 -6 7 8 20 0
-16 -17 18 -1 2 3 -6 7 -8 39 0
-16 -17 18 -1 2 3 -6 -7 8 25 0
-16 -17 18 -1 2 3 -6 -7 -8 37 0
-16 -17 18 -1 2 -3 6 7 8 36 0
-16 -17 18 -1 2 -3 6 7 -8 43 0
-16 -17 18 -1 2 -3 6 -7 8 42 0
-16 -17 18 -1 2 -3 6 -7 -8 43 0
-16 -17 18 -1 2 -3 -6 7 8 37 0
-16 -17 18 -1 2 -3 -6 7 -8 49 0
-16 -17 18 -1 2 -3 -6 -7 8 49 0
-16 -17 18 -1 2 -3 -6 -7 -8 43 0
-16 -17 18 -1 -2 3 6 7 8 41 0
-16 -17 18 -1 -2 3 6 7 -8 35 0
-16 -17 18 -1 -2 3 6 -7 8 42 0
-16 -17 18 -1 -2 3 6 -7 -8 34 0
-16 -17 18 -1 -2 3 -6 7 8 53 0
-16 -17 18 -1 -2 3 -6 7 -8 31 0
-16 -17 18 -1 -2 3 -6 -7 8 21 0
-16 -17 18 -1 -2 3 -6 -7 -8 45 0
-16 -17 18 -1 -2 -3 6 7 8 37 0
-16 -17 18 -1 -2 -3 6 7 -8 35 0
-16 -17 18 -1 -2 -3 6 -7 8 37 0
-16 -17 18 -1 -2 -3 6 -7 -8 35 0
-16 -17 18 -1 -2 -3 -6 7 8 45 0
-16 -17 18 -1 -2 -3 -6 7 -8 22 0
-16 -17 18 -1 -2 -3 -6 -7 8 43 0
-16 -17 18 -1 -2 -3 -6 -7 -8 36 0
-16 -17 -18 1 2 3 6 7 8 35 0
-16 -17 -18 1 2 3 6 7 -8 35 0
-16 -17 -18 1 2 3 6 -7 8 36 0
-16 -17 -18 1 2 3 6 -7 -8 36 0
-16 -17 -18 1 2 3 -6 7 8 41 0
-16 -17 -18 1 2 3 -6 7 -8 20 0
-16 -17 -18 1 2 3 -6 -7 8 35 0
-16 -17 -18 1 2 3 -6 -7 -8 38 0
-16 -17 -18 1 2 -3 6 7 8 42 0
-16 -17 -18 1 2 -3 6 7 -8 20 0
-16 -17 -18 1 2 -3 6 -7 8 43 0
-16 -17 -18 1 2 -3 6 -7 -8 20 0
-16 -17 -18 1 2 -3 -6 7 8 20 0
-16 -17 -18 1 2 -3 -6 7 -8 42 0
-16 -17 -18 1 2 -3 -6 -7 8 35 0
-16 -17 -18 1 2 -3 -6 -7 -8 43 0
-16 -17 -18 1 -2 3 6 7 8 20 0
-16 -17 -18 1 -2 3 6 7 -8 42 0
-16 -17 -18 1 -2 3 6 -7 8 27 0
-16 -17 -18 1 -2 3 6 -7 -8 20 0
-16 -17 -18 1 -2 3 -6 7 8 20 0
-16 -17 -18 1 -2 3 -6 7 -8 42 0
-16 -17 -18 1 -2 3 -6 -7 8 37 0
-16 -17 -18 1 -2 3 -6 -7 -8 38 0
-16 -17 -18 1 -2 -3 6 7 8 20 0
-16 -17 -18 1 -2 -3 6 7 -8 43 0
-16 -17 -18 1 -2 -3 6 -7 8 36 0
-16 -17 -18 1 -2 -3 6 -7 -8 20 0
-16 -17 -18 1 -2 -3 -6 7 8 20 0
-16 -17 -18 1 -2 -3 -6 7 -8 41 0
-16 -17 -18 1 -2 -3 -6 -7 8 20 0
-16 -17 -18 1 -2 -3 -6 -7 -8 24 0
-16 -17 -18 -1 2 3 6 7 8 43 0
-16 -17 -18 -1 2 3 6 7 -8 28 0
-16 -17 -18 -1 2 3 6 -7 8 43 0
-16 -17 -18 -1 2 3 6 -7 -8 36 0
-16 -17 -18 -1 2 3 -6 7 8 20 0
-16 -17 -18 -1 2 3 -6 7 -8 41 0
-16 -17 -18 -1 2 3 -6 -7 8 43 0
-16 -17 -18 -1 2 3 -6 -7 -8 52 0
-16 -17 -18 -1 2 -3 6 7 8 36 0
-16 -17 -18 -1 2 -3 6 7 -8 43 0
-16 -17 -18 -1 2 -3 6 -7 8 42 0
-16 -17 -18 -1 2 -3 6 -7 -8 43 0
-16 -17 -18 -1 2 -3 -6 7 8 42 0
-16 -17 -18 -1 2 -3 -6 7 -8 38 0
-16 -17 -18 -1 2 -3 -6 -7 8 38 0
-16 -17 -18 -1 2 -3 -6 -7 -8 33 0
-16 -17 -18 -1 -2 3 6 7 8 41 0
-16 -17 -18 -1 -2 3 6 7 -8 35 0
-16 -17 -18 -1 -2 3 6 -7 8 42 0
-16 -17 -18 -1 -2 3 6 -7 -8 34 0
-16 -17 -18 -1 -2 3 -6 7 8 20 0
-16 -17 -18 -1 -2 3 -6 7 -8 29 0
-16 -17 -18 -1 -2 3 -6 -7 8 21 0
-16 -17 -18 -1 -2 3 -6 -7 -8 22 0
-16 -17 -18 -1 -2 -3 6 7 8 42 0
-16 -17 -18 -1 -2 -3 6 7 -8 35 0
-16 -17 -18 -1 -2 -3 6 -7 8 37 0
-16 -17 -18 -1 -2 -3 6 -7 -8 35 0
-16 -17 -18 -1 -2 -3 -6 7 8 29 0
-16 -17 -18 -1 -2 -3 -6 7 -8 45 0
-16 -17 -18 -1 -2 -3 -6 -7 8 33 0
-16 -17 -18 -1 -2 -3 -6 -7 -8 32 0
54 55 56 11 12 13 16 17 18 57 0
54 55 56 11 12 13 16 17 -18 58 0
54 55 56 11 12 13 16 -17 18 78 0
54 55 56 11 12 13 16 -17 -18 77 0
54 55 56 11 12 13 -16 17 18 69 0
54 55 56 11 12 13 -16 17 -18 59 0
54 55 56 11 12 13 -16 -17 18 70 0
54 55 56 11 12 13 -16 -17 -18 59 0
54 55 56 11 12 -13 16 17 18 60 0
54 55 56 11 12 -13 16 17 -18 61 0
54 55 56 11 12 -13 16 -17 18 78 0
54 55 56 11 12 -13 16 -17 -18 78 0
54 55 56 11 12 -13 -16 17 18 78 0
54 55 56 11 12 -13 -16 17 -18 77 0
54 55 56 11 12 -13 -16 -17 18 59 0
54 55 56 11 12 -13 -16 -17 -18 88 0
54 55 56 11 -12 13 16 17 18 62 0
54 55 56 11 -12 13 16 17 -18 61 0
54 55 56 11 -12 13 16 -17 18 79 0
54 55 56 11 -12 13 16 -17 -18 77 0
54 55 56 11 -12 13 -16 17 18 59 0
54 55 56 11 -12 13 -16 17 -18 70 0
54 55 56 11 -12 13 -16 -17 18 59 0
54 55 56 11 -12 13 -16 -17 -18 77 0
54 55 56 11 -12 -13 16 17 18 67 0
54 55 56 11 -12 -13 16 17 -18 77 0
54 55 56 11 -12 -13 16 -17 18 69 0
54 55 56 11 -12 -13 16 -17 -18 59 0
54 55 56 11 -12 -13 -16 17 18 70 0
54 55 56 11 -12 -13 -16 17 -18 78 0
54 55 56 11 -12 -13 -16 -17 18 70 0
54 55 56 11 -12 -13 -16 -17 -18 59 0
54 55 56 -11 12 13 16 17 18 86 0
54 55 56 -11 12 13 16 17 -18 69 0
54 55 56 -11 12 13 16 -17 18 69 0
54 55 56 -11 12 13 16 -17 -18 78 0
54 55 56 -11 12 13 -16 17 18 77 0
54 55 56 -11 12 13 -16 17 -18 78 0
54 55 56 -11 12 13 -16 -17 18 79 0
54 55 56 -11 12 13 -16 -17 -18 59 0
54 55 56 -11 12 -13 16 17 18 86 0
54 55 56 -11 12 -13 16 17 -18 69 0
54 55 56 -11 12 -13 16 -17 18 77 0
54 55 56 -11 12 -13 16 -17 -18 77 0
54 55 56 -11 12 -13 -16 17 18 78 0
54 55 56 -11 12 -13 -16 17 -18 59 0
54 55 56 -11 12 -13 -16 -17 18 77 0
54 55 56 -11 12 -13 -16 -17 -18 68 0
54 55 56 -11 -12 13 16 17 18 66 0
54 55 56 -11 -12 13 16 17 -18 77 0
54 55 56 -11 -12 13 16 -17 18 70 0
54 55 56 -11 -12 13 16 -17 -18 59 0
54 55 56 -11 -12 13 -16 17 18 79 0
54 55 56 -11 -12 13 -16 17 -18 77 0
54 55 56 -11 -12 13 -16 -17 18 77 0
54 55 56 -11 -12 13 -16 -17 -18 78 0
54 55 56 -11 -12 -13 16 17 18 63 0
54 55 56 -11 -12 -13 16 17 -18 78 0
54 55 56 -11 -12 -13 16 -17 18 77 0
54 55 56 -11 -12 -13 16 -17 -18 78 0
54 55 56 -11 -12 -13 -16 17 18 69 0
54 55 56 -11 -12 -13 -16 17 -18 77 0
54 55 56 -11 -12 -13 -16 -17 18 59 0
54 55 56 -11 -12 -13 -16 -17 -18 70 0
54 55 -56 11 12 13 16 17 18 77 0
54 55 -56 11 12 13 16 17 -18 79 0
54 55 -56 11 12 13 16 -17 18 67 0
54 55 -56 11 12 13 16 -17 -18 64 0
54 55 -56 11 12 13 -16 17 18 69 0
54 55 -56 11 12 13 -16 17 -18 59 0
54 55 -56 11 12 13 -16 -17 18 70 0
54 55 -56 11 12 13 -16 -17 -18 59 0
54 55 -56 11 12 -13 16 17 18 59 0
54 55 -56 11 12 -13 16 17 -18 65 0
54 55 -56 11 12 -13 16 -17 18 65 0
54 55 -56 11 12 -13 16 -17 -18 78 0
54 55 -56 11 12 -13 -16 17 18 78 0
54 55 -56 11 12 -13 -16 17 -18 77 0
54 55 -56 11 12 -13 -16 -17 18 59 0
54 55 -56 11 12 -13 -16 -17 -18 88 0
54 55 -56 11 -12 13 16 17 18 69 0
54 55 -56 11 -12 13 16 17 -18 65 0
54 55 -56 11 -12 13 16 -17 18 74 0
54 55 -56 11 -12 13 16 -17 -18 77 0
54 55 -56 11 -12 13 -16 17 18 59 0
54 55 -56 11 -12 13 -16 17 -18 70 0
54 55 -56 11 -12 13 -16 -17 18 59 0
54 55 -56 11 -12 13 -16 -17 -18 77 0
54 55 -56 11 -12 -13 16 17 18 78 0
54 55 -56 11 -12 -13 16 17 -18 57 0
54 55 -56 11 -12 -13 16 -17 18 80 0
54 55 -56 11 -12 -13 16 -17 -18 59 0
54 55 -56 11 -12 -13 -16 17 18 70 0
54 55 -56 11 -12 -13 -16 17 -18 78 0
54 55 -56 11 -12 -13 -16 -17 18 70 0
54 55 -56 11 -12 -13 -16 -17 -18 59 0
54 55 -56 -11 12 13 16 17 18 81 0
54 55 -56 -11 12 13 16 17 -18 62 0
54 55 -56 -11 12 13 16 -17 18 69 0
54 55 -56 -11 12 13 16 -17 -18 78 0
54 55 -56 -11 12 13 -16 17 18 77 0
54 55 -56 -11 12 13 -16 17 -18 78 0
54 55 -56 -11 12 13 -16 -17 18 79 0
54 55 -56 -11 12 13 -16 -17 -18 59 0
54 55 -56 -11 12 -13 16 17 18 81 0
54 55 -56 -11 12 -13 16 17 -18 86 0
54 55 -56 -11 12 -13 16 -17 18 77 0
54 55 -56 -11 12 -13 16 -17 -18 77 0
54 55 -56 -11 12 -13 -16 17 18 78 0
54 55 -56 -11 12 -13 -16 17 -18 59 0
54 55 -56 -11 12 -13 -16 -17 18 77 0
54 55 -56 -11 12 -13 -16 -17 -18 68 0
54 55 -56 -11 -12 13 16 17 18 76 0
54 55 -56 -11 -12 13 16 17 -18 84 0
54 55 -56 -11 -12 13 16 -17 18 70 0
54 55 -56 -11 -12 13 16 -17 -18 59 0
54 55 -56 -11 -12 13 -16 17 18 79 0
54 55 -56 -11 -12 13 -16 17 -18 77 0
54 55 -56 -11 -12 13 -16 -17 18 77 0
54 55 -56 -11 -12 13 -16 -17 -18 78 0
54 55 -56 -11 -12 -13 16 17 18 81 0
54 55 -56 -11 -12 -13 16 17 -18 78 0
54 55 -56 -11 -12 -13 16 -17 18 77 0
54 55 -56 -11 -12 -13 16 -17 -18 78 0
54 55 -56 -11 -12 -13 -16 17 18 69 0
54 55 -56 -11 -12 -13 -16 17 -18 77 0
54 55 -56 -11 -12 -13 -16 -17 18 59 0
54 55 -56 -11 -12 -13 -16 -17 -18 70 0
54 -55 56 11 12 13 16 17 18 77 0
54 -55 56 11 12 13 16 17 -18 79 0
54 -55 56 11 12 13 16 -17 18 78 0
54 -55 56 11 12 13 16 -17 -18 82 0
54 -55 56 11 12 13 -16 17 18 86 0
54 -55 56 11 12 13 -16 17 -18 59 0
54 -55 56 11 12 13 -16 -17 18 70 0
54 -55 56 11 12 13 -16 -17 -18 59 0
54 -55 56 11 12 -13 16 17 18 59 0
54 -55 56 11 12 -13 16 17 -18 78 0
54 -55 56 11 12 -13 16 -17 18 61 0
54 -55 56 11 12 -13 16 -17 -18 67 0
54 -55 56 11 12 -13 -16 17 18 65 0
54 -55 56 11 12 -13 -16 17 -18 77 0
54 -55 56 11 12 -13 -16 -17 18 59 0
54 -55 56 11 12 -13 -16 -17 -18 88 0
54 -55 56 11 -12 13 16 17 18 69 0
54 -55 56 11 -12 13 16 17 -18 78 0
54 -55 56 11 -12 13 16 -17 18 74 0
54 -55 56 11 -12 13 16 -17 -18 82 0
54 -55 56 11 -12 13 -16 17 18 59 0
54 -55 56 11 -12 13 -16 17 -18 70 0
54 -55 56 11 -12 13 -16 -17 18 59 0
54 -55 56 11 -12 13 -16 -17 -18 77 0
54 -55 56 11 -12 -13 16 17 18 78 0
54 -55 56 11 -12 -13 16 17 -18 77 0
54 -55 56 11 -12 -13 16 -17 18 86 0
54 -55 56 11 -12 -13 16 -17 -18 72 0
54 -55 56 11 -12 -13 -16 17 18 70 0
54 -55 56 11 -12 -13 -16 17 -18 78 0
54 -55 56 11 -12 -13 -16 -17 18 70 0
54 -55 56 11 -12 -13 -16 -17 -18 59 0
54 -55 56 -11 12 13 16 17 18 70 0
54 -55 56 -11 12 13 16 17 -18 69 0
54 -55 56 -11 12 13 16 -17 18 86 0
54 -55 56 -11 12 13 16 -17 -18 78 0
54 -55 56 -11 12 13 -16 17 18 77 0
54 -55 56 -11 12 13 -16 17 -18 78 0
54 -55 56 -11 12 13 -16 -17 18 79 0
54 -55 56 -11 12 13 -16 -17 -18 59 0
54 -55 56 -11 12 -13 16 17 18 70 0
54 -55 56 -11 12 -13 16 17 -18 83 0
54 -55 56 -11 12 -13 16 -17 18 84 0
54 -55 56 -11 12 -13 16 -17 -18 77 0
54 -55 56 -11 12 -13 -16 17 18 78 0
54 -55 56 -11 12 -13 -16 17 -18 59 0
54 -55 56 -11 12 -13 -16 -17 18 77 0
54 -55 56 -11 12 -13 -16 -17 -18 68 0
54 -55 56 -11 -12 13 16 17 18 59 0
54 -55 56 -11 -12 13 16 17 -18 84 0
54 -55 56 -11 -12 13 16 -17 18 63 0
54 -55 56 -11 -12 13 16 -17 -18 59 0
54 -55 56 -11 -12 13 -16 17 18 79 0
54 -55 56 -11 -12 13 -16 17 -18 77 0
54 -55 56 -11 -12 13 -16 -17 18 77 0
54 -55 56 -11 -12 13 -16 -17 -18 78 0
54 -55 56 -11 -12 -13 16 17 18 81 0
54 -55 56 -11 -12 -13 16 17 -18 61 0
54 -55 56 -11 -12 -13 16 -17 18 77 0
54 -55 56 -11 -12 -13 16 -17 -18 78 0
54 -55 56 -11 -12 -13 -16 17 18 69 0
54 -55 56 -11 -12 -13 -16 17 -18 77 0
54 -55 56 -11 -12 -13 -16 -17 18 59 0
54 -55 56 -11 -12 -13 -16 -17 -18 70 0
54 -55 -56 11 12 13 16 17 18 77 0
54 -55 -56 11 12 13 16 17 -18 79 0
54 -55 -56 11 12 13 16 -17 18 78 0
54 -55 -56 11 12 13 16 -17 -18 77 0
54 -55 -56 11 12 13 -16 17 18 83 0
54 -55 -56 11 12 13 -16 17 -18 72 0
54 -55 -56 11 12 13 -16 -17 18 70 0
54 -55 -56 11 12 13 -16 -17 -18 59 0
54 -55 -56 11 12 -13 16 17 18 59 0
54 -55 -56 11 12 -13 16 17 -18 78 0
54 -55 -56 11 12 -13 16 -17 18 78 0
54 -55 -56 11 12 -13 16 -17 -18 78 0
54 -55 -56 11 12 -13 -16 17 18 61 0
54 -55 -56 11 12 -13 -16 17 -18 77 0
54 -55 -56 11 12 -13 -16 -17 18 59 0
54 -55 -56 11 12 -13 -16 -17 -18 88 0
54 -55 -56 11 -12 13 16 17 18 69 0
54 -55 -56 11 -12 13 16 17 -18 78 0
54 -55 -56 11 -12 13 16 -17 18 79 0
54 -55 -56 11 -12 13 16 -17 -18 84 0
54 -55 -56 11 -12 13 -16 17 18 76 0
54 -55 -56 11 -12 13 -16 17 -18 70 0
54 -55 -56 11 -12 13 -16 -17 18 59 0
54 -55 -56 11 -12 13 -16 -17 -18 77 0
54 -55 -56 11 -12 -13 16 17 18 78 0
54 -55 -56 11 -12 -13 16 17 -18 77 0
54 -55 -56 11 -12 -13 16 -17 18 74 0
54 -55 -56 11 -12 -13 16 -17 -18 89 0
54 -55 -56 11 -12 -13 -16 17 18 70 0
54 -55 -56 11 -12 -13 -16 17 -18 78 0
54 -55 -56 11 -12 -13 -16 -17 18 70 0
54 -55 -56 11 -12 -13 -16 -17 -18 59 0
54 -55 -56 -11 12 13 16 17 18 70 0
54 -55 -56 -11 12 13 16 17 -18 69 0
54 -55 -56 -11 12 13 16 -17 18 83 0
54 -55 -56 -11 12 13 16 -17 -18 67 0
54 -55 -56 -11 12 13 -16 17 18 77 0
54 -55 -56 -11 12 13 -16 17 -18 78 0
54 -55 -56 -11 12 13 -16 -17 18 79 0
54 -55 -56 -11 12 13 -16 -17 -18 59 0
54 -55 -56 -11 12 -13 16 17 18 70 0
54 -55 -56 -11 12 -13 16 17 -18 69 0
54 -55 -56 -11 12 -13 16 -17 18 84 0
54 -55 -56 -11 12 -13 16 -17 -18 84 0
54 -55 -56 -11 12 -13 -16 17 18 78 0
54 -55 -56 -11 12 -13 -16 17 -18 59 0
54 -55 -56 -11 12 -13 -16 -17 18 77 0
54 -55 -56 -11 12 -13 -16 -17 -18 68 0
54 -55 -56 -11 -12 13 16 17 18 59 0
54 -55 -56 -11 -12 13 16 17 -18 77 0
54 -55 -56 -11 -12 13 16 -17 18 63 0
54 -55 -56 -11 -12 13 16 -17 -18 72 0
54 -55 -56 -11 -12 13 -16 17 18 79 0
54 -55 -56 -11 -12 13 -16 17 -18 77 0
54 -55 -56 -11 -12 13 -16 -17 18 77 0
54 -55 -56 -11 -12 13 -16 -17 -18 78 0
54 -55 -56 -11 -12 -13 16 17 18 70 0
54 -55 -56 -11 -12 -13 16 17 -18 65 0
54 -55 -56 -11 -12 -13 16 -17 18 64 0
54 -55 -56 -11 -12 -13 16 -17 -18 78 0
54 -55 -56 -11 -12 -13 -16 17 18 69 0
54 -55 -56 -11 -12 -13 -16 17 -18 77 0
54 -55 -56 -11 -12 -13 -16 -17 18 59 0
54 -55 -56 -11 -12 -13 -16 -17 -18 70 0
-54 55 56 11 12 13 16 17 18 77 0
-54 55 56 11 12 13 16 17 -18 79 0
-54 55 56 11 12 13 16 -17 18 78 0
-54 55 56 11 12 13 16 -17 -18 77 0
-54 55 56 11 12 13 -16 17 18 69 0
-54 55 56 11 12 13 -16 17 -18 66 0
-54 55 56 11 12 13 -16 -17 18 70 0
-54 55 56 11 12 13 -16 -17 -18 59 0
-54 55 56 11 12 -13 16 17 18 59 0
-54 55 56 11 12 -13 16 17 -18 78 0
-54 55 56 11 12 -13 16 -17 18 78 0
-54 55 56 11 12 -13 16 -17 -18 78 0
-54 55 56 11 12 -13 -16 17 18 78 0
-54 55 56 11 12 -13 -16 17 -18 64 0
-54 55 56 11 12 -13 -16 -17 18 59 0
-54 55 56 11 12 -13 -16 -17 -18 88 0
-54 55 56 11 -12 13 16 17 18 69 0
-54 55 56 11 -12 13 16 17 -18 78 0
-54 55 56 11 -12 13 16 -17 18 79 0
-54 55 56 11 -12 13 16 -17 -18 71 0
-54 55 56 11 -12 13 -16 17 18 66 0
-54 55 56 11 -12 13 -16 17 -18 86 0
-54 55 56 11 -12 13 -16 -17 18 59 0
-54 55 56 11 -12 13 -16 -17 -18 77 0
-54 55 56 11 -12 -13 16 17 18 78 0
-54 55 56 11 -12 -13 16 17 -18 77 0
-54 55 56 11 -12 -13 16 -17 18 69 0
-54 55 56 11 -12 -13 16 -17 -18 59 0
-54 55 56 11 -12 -13 -16 17 18 73 0
-54 55 56 11 -12 -13 -16 17 -18 78 0
-54 55 56 11 -12 -13 -16 -17 18 70 0
-54 55 56 11 -12 -13 -16 -17 -18 59 0
-54 55 56 -11 12 13 16 17 18 70 0
-54 55 56 -11 12 13 16 17 -18 69 0
-54 55 56 -11 12 13 16 -17 18 69 0
-54 55 56 -11 12 13 16 -17 -18 78 0
-54 55 56 -11 12 13 -16 17 18 64 0
-54 55 56 -11 12 13 -16 17 -18 78 0
-54 55 56 -11 12 13 -16 -17 18 79 0
-54 55 56 -11 12 13 -16 -17 -18 59 0
-54 55 56 -11 12 -13 16 17 18 70 0
-54 55 56 -11 12 -13 16 17 -18 69 0
-54 55 56 -11 12 -13 16 -17 18 77 0
-54 55 56 -11 12 -13 16 -17 -18 84 0
-54 55 56 -11 12 -13 -16 17 18 67 0
-54 55 56 -11 12 -13 -16 17 -18 59 0
-54 55 56 -11 12 -13 -16 -17 18 77 0
-54 55 56 -11 12 -13 -16 -17 -18 68 0
-54 55 56 -11 -12 13 16 17 18 59 0
-54 55 56 -11 -12 13 16 17 -18 77 0
-54 55 56 -11 -12 13 16 -17 18 70 0
-54 55 56 -11 -12 13 16 -17 -18 89 0
-54 55 56 -11 -12 13 -16 17 18 74 0
-54 55 56 -11 -12 13 -16 17 -18 77 0
-54 55 56 -11 -12 13 -16 -17 18 77 0
-54 55 56 -11 -12 13 -16 -17 -18 78 0
-54 55 56 -11 -12 -13 16 17 18 70 0
-54 55 56 -11 -12 -13 16 17 -18 78 0
-54 55 56 -11 -12 -13 16 -17 18 82 0
-54 55 56 -11 -12 -13 16 -17 -18 61 0
-54 55 56 -11 -12 -13 -16 17 18 69 0
-54 55 56 -11 -12 -13 -16 17 -18 77 0
-54 55 56 -11 -12 -13 -16 -17 18 59 0
-54 55 56 -11 -12 -13 -16 -17 -18 70 0
-54 55 -56 11 12 13 16 17 18 77 0
-54 55 -56 11 12 13 16 17 -18 79 0
-54 55 -56 11 12 13 16 -17 18 78 0
-54 55 -56 11 12 13 16 -17 -18 77 0
-54 55 -56 11 12 13 -16 17 18 69 0
-54 55 -56 11 12 13 -16 17 -18 72 0
-54 55 -56 11 12 13 -16 -17 18 86 0
-54 55 -56 11 12 13 -16 -17 -18 76 0
-54 55 -56 11 12 -13 16 17 18 59 0
-54 55 -56 11 12 -13 16 17 -18 78 0
-54 55 -56 11 12 -13 16 -17 18 78 0
-54 55 -56 11 12 -13 16 -17 -18 78 0
-54 55 -56 11 12 -13 -16 17 18 78 0
-54 55 -56 11 12 -13 -16 17 -18 82 0
-54 55 -56 11 12 -13 -16 -17 18 66 0
-54 55 -56 11 12 -13 -16 -17 -18 88 0
-54 55 -56 11 -12 13 16 17 18 69 0
-54 55 -56 11 -12 13 16 17 -18 78 0
-54 55 -56 11 -12 13 16 -17 18 79 0
-54 55 -56 11 -12 13 16 -17 -18 77 0
-54 55 -56 11 -12 13 -16 17 18 59 0
-54 55 -56 11 -12 13 -16 17 -18 81 0
-54 55 -56 11 -12 13 -16 -17 18 66 0
-54 55 -56 11 -12 13 -16 -17 -18 77 0
-54 55 -56 11 -12 -13 16 17 18 78 0
-54 55 -56 11 -12 -13 16 17 -18 77 0
-54 55 -56 11 -12 -13 16 -17 18 69 0
-54 55 -56 11 -12 -13 16 -17 -18 59 0
-54 55 -56 11 -12 -13 -16 17 18 70 0
-54 55 -56 11 -12 -13 -16 17 -18 67 0
-54 55 -56 11 -12 -13 -16 -17 18 63 0
-54 55 -56 11 -12 -13 -16 -17 -18 59 0
-54 55 -56 -11 12 13 16 17 18 70 0
-54 55 -56 -11 12 13 16 17 -18 69 0
-54 55 -56 -11 12 13 16 -17 18 69 0
-54 55 -56 -11 12 13 16 -17 -18 78 0
-54 55 -56 -11 12 13 -16 17 18 82 0
-54 55 -56 -11 12 13 -16 17 -18 67 0
-54 55 -56 -11 12 13 -16 -17 18 79 0
-54 55 -56 -11 12 13 -16 -17 -18 59 0
-54 55 -56 -11 12 -13 16 17 18 70 0
-54 55 -56 -11 12 -13 16 17 -18 69 0
-54 55 -56 -11 12 -13 16 -17 18 77 0
-54 55 -56 -11 12 -13 16 -17 -18 77 0
-54 55 -56 -11 12 -13 -16 17 18 78 0
-54 55 -56 -11 12 -13 -16 17 -18 89 0
-54 55 -56 -11 12 -13 -16 -17 18 77 0
-54 55 -56 -11 12 -13 -16 -17 -18 68 0
-54 55 -56 -11 -12 13 16 17 18 59 0
-54 55 -56 -11 -12 13 16 17 -18 77 0
-54 55 -56 -11 -12 13 16 -17 18 70 0
-54 55 -56 -11 -12 13 16 -17 -18 59 0
-54 55 -56 -11 -12 13 -16 17 18 74 0
-54 55 -56 -11 -12 13 -16 17 -18 84 0
-54 55 -56 -11 -12 13 -16 -17 18 77 0
-54 55 -56 -11 -12 13 -16 -17 -18 78 0
-54 55 -56 -11 -12 -13 16 17 18 70 0
-54 55 -56 -11 -12 -13 16 17 -18 78 0
-54 55 -56 -11 -12 -13 16 -17 18 77 0
-54 55 -56 -11 -12 -13 16 -17 -18 65 0
-54 55 -56 -11 -12 -13 -16 17 18 86 0
-54 55 -56 -11 -12 -13 -16 17 -18 77 0
-54 55 -56 -11 -12 -13 -16 -17 18 59 0
-54 55 -56 -11 -12 -13 -16 -17 -18 70 0
-54 -55 56 11 12 13 16 17 18 77 0
-54 -55 56 11 12 13 16 17 -18 79 0
-54 -55 56 11 12 13 16 -17 18 78 0
-54 -55 56 11 12 13 16 -17 -18 77 0
-54 -55 56 11 12 13 -16 17 18 69 0
-54 -55 56 11 12 13 -16 17 -18 59 0
-54 -55 56 11 12 13 -16 -17 18 81 0
-54 -55 56 11 12 13 -16 -17 -18 72 0
-54 -55 56 11 12 -13 16 17 18 59 0
-54 -55 56 11 12 -13 16 17 -18 78 0
-54 -55 56 11 12 -13 16 -17 18 78 0
-54 -55 56 11 12 -13 16 -17 -18 78 0
-54 -55 56 11 12 -13 -16 17 18 78 0
-54 -55 56 11 12 -13 -16 17 -18 77 0
-54 -55 56 11 12 -13 -16 -17 18 76 0
-54 -55 56 11 12 -13 -16 -17 -18 87 0
-54 -55 56 11 -12 13 16 17 18 69 0
-54 -55 56 11 -12 13 16 17 -18 78 0
-54 -55 56 11 -12 13 16 -17 18 79 0
-54 -55 56 11 -12 13 16 -17 -18 77 0
-54 -55 56 11 -12 13 -16 17 18 59 0
-54 -55 56 11 -12 13 -16 17 -18 70 0
-54 -55 56 11 -12 13 -16 -17 18 76 0
-54 -55 56 11 -12 13 -16 -17 -18 77 0
-54 -55 56 11 -12 -13 16 17 18 78 0
-54 -55 56 11 -12 -13 16 17 -18 77 0
-54 -55 56 11 -12 -13 16 -17 18 69 0
-54 -55 56 11 -12 -13 16 -17 -18 59 0
-54 -55 56 11 -12 -13 -16 17 18 70 0
-54 -55 56 11 -12 -13 -16 17 -18 78 0
-54 -55 56 11 -12 -13 -16 -17 18 63 0
-54 -55 56 11 -12 -13 -16 -17 -18 72 0
-54 -55 56 -11 12 13 16 17 18 70 0
-54 -55 56 -11 12 13 16 17 -18 69 0
-54 -55 56 -11 12 13 16 -17 18 69 0
-54 -55 56 -11 12 13 16 -17 -18 78 0
-54 -55 56 -11 12 13 -16 17 18 77 0
-54 -55 56 -11 12 13 -16 17 -18 78 0
-54 -55 56 -11 12 13 -16 -17 18 58 0
-54 -55 56 -11 12 13 -16 -17 -18 59 0
-54 -55 56 -11 12 -13 16 17 18 70 0
-54 -55 56 -11 12 -13 16 17 -18 69 0
-54 -55 56 -11 12 -13 16 -17 18 77 0
-54 -55 56 -11 12 -13 16 -17 -18 77 0
-54 -55 56 -11 12 -13 -16 17 18 78 0
-54 -55 56 -11 12 -13 -16 17 -18 72 0
-54 -55 56 -11 12 -13 -16 -17 18 57 0
-54 -55 56 -11 12 -13 -16 -17 -18 68 0
-54 -55 56 -11 -12 13 16 17 18 59 0
-54 -55 56 -11 -12 13 16 17 -18 77 0
-54 -55 56 -11 -12 13 16 -17 18 70 0
-54 -55 56 -11 -12 13 16 -17 -18 59 0
-54 -55 56 -11 -12 13 -16 17 18 79 0
-54 -55 56 -11 -12 13 -16 17 -18 84 0
-54 -55 56 -11 -12 13 -16 -17 18 84 0
-54 -55 56 -11 -12 13 -16 -17 -18 78 0
-54 -55 56 -11 -12 -13 16 17 18 70 0
-54 -55 56 -11 -12 -13 16 17 -18 78 0
-54 -55 56 -11 -12 -13 16 -17 18 77 0
-54 -55 56 -11 -12 -13 16 -17 -18 78 0
-54 -55 56 -11 -12 -13 -16 17 18 83 0
-54 -55 56 -11 -12 -13 -16 17 -18 90 0
-54 -55 56 -11 -12 -13 -16 -17 18 59 0
-54 -55 56 -11 -12 -13 -16 -17 -18 70 0
-54 -55 -56 11 12 13 16 17 18 77 0
-54 -55 -56 11 12 13 16 17 -18 79 0
-54 -55 -56 11 12 13 16 -17 18 78 0
-54 -55 -56 11 12 13 16 -17 -18 77 0
-54 -55 -56 11 12 13 -16 17 18 69 0
-54 -55 -56 11 12 13 -16 17 -18 59 0
-54 -55 -56 11 12 13 -16 -17 18 70 0
-54 -55 -56 11 12 13 -16 -17 -18 76 0
-54 -55 -56 11 12 -13 16 17 18 59 0
-54 -55 -56 11 12 -13 16 17 -18 78 0
-54 -55 -56 11 12 -13 16 -17 18 78 0
-54 -55 -56 11 12 -13 16 -17 -18 78 0
-54 -55 -56 11 12 -13 -16 17 18 78 0
-54 -55 -56 11 12 -13 -16 17 -18 77 0
-54 -55 -56 11 12 -13 -16 -17 18 59 0
-54 -55 -56 11 12 -13 -16 -17 -18 85 0
-54 -55 -56 11 -12 13 16 17 18 69 0
-54 -55 -56 11 -12 13 16 17 -18 78 0
-54 -55 -56 11 -12 13 16 -17 18 79 0
-54 -55 -56 11 -12 13 16 -17 -18 77 0
-54 -55 -56 11 -12 13 -16 17 18 59 0
-54 -55 -56 11 -12 13 -16 17 -18 70 0
-54 -55 -56 11 -12 13 -16 -17 18 59 0
-54 -55 -56 11 -12 13 -16 -17 -18 57 0
-54 -55 -56 11 -12 -13 16 17 18 78 0
-54 -55 -56 11 -12 -13 16 17 -18 77 0
-54 -55 -56 11 -12 -13 16 -17 18 69 0
-54 -55 -56 11 -12 -13 16 -17 -18 59 0
-54 -55 -56 11 -12 -13 -16 17 18 70 0
-54 -55 -56 11 -12 -13 -16 17 -18 78 0
-54 -55 -56 11 -12 -13 -16 -17 18 70 0
-54 -55 -56 11 -12 -13 -16 -17 -18 89 0
-54 -55 -56 -11 12 13 16 17 18 70 0
-54 -55 -56 -11 12 13 16 17 -18 69 0
-54 -55 -56 -11 12 13 16 -17 18 69 0
-54 -55 -56 -11 12 13 16 -17 -18 78 0
-54 -55 -56 -11 12 13 -16 17 18 77 0
-54 -55 -56 -11 12 13 -16 17 -18 78 0
-54 -55 -56 -11 12 13 -16 -17 18 79 0
-54 -55 -56 -11 12 13 -16 -17 -18 60 0
-54 -55 -56 -11 12 -13 16 17 18 70 0
-54 -55 -56 -11 12 -13 16 17 -18 69 0
-54 -55 -56 -11 12 -13 16 -17 18 77 0
-54 -55 -56 -11 12 -13 16 -17 -18 77 0
-54 -55 -56 -11 12 -13 -16 17 18 78 0
-54 -55 -56 -11 12 -13 -16 17 -18 59 0
-54 -55 -56 -11 12 -13 -16 -17 18 77 0
-54 -55 -56 -11 12 -13 -16 -17 -18 75 0
-54 -55 -56 -11 -12 13 16 17 18 59 0
-54 -55 -56 -11 -12 13 16 17 -18 77 0
-54 -55 -56 -11 -12 13 16 -17 18 70 0
-54 -55 -56 -11 -12 13 16 -17 -18 59 0
-54 -55 -56 -11 -12 13 -16 17 18 79 0
-54 -55 -56 -11 -12 13 -16 17 -18 77 0
-54 -55 -56 -11 -12 13 -16 -17 18 84 0
-54 -55 -56 -11 -12 13 -16 -17 -18 67 0
-54 -55 -56 -11 -12 -13 16 17 18 70 0
-54 -55 -56 -11 -12 -13 16 17 -18 78 0
-54 -55 -56 -11 -12 -13 16 -17 18 77 0
-54 -55 -56 -11 -12 -13 16 -17 -18 78 0
-54 -55 -56 -11 -12 -13 -16 17 18 69 0
-54 -55 -56 -11 -12 -13 -16 17 -18 71 0
-54 -55 -56 -11 -12 -13 -16 -17 18 60 0
-54 -55 -56 -11 -12 -13 -16 -17 -18 73 0
